num_intervals = 144;
num_intervals_hour = ceil(num_intervals / 24);

min_energy_capacity = 0;  % in kwh
max_energy_capacity = 5;  % in kwh
max_power = 5; 

prices = array1d(INTERVALS,[
141, 141, 141, 141, 141, 141, 141, 141, 141, 141, 141, 141, 141, 141, 141, 141, 141, 141, 141, 141, 141, 141, 141, 141, 141, 141, 141, 143, 143, 143, 142, 142, 142, 148, 148, 148, 189, 189, 189, 163, 163, 163, 145, 145, 145, 141, 141, 141, 141, 141, 141, 141, 141, 141, 141, 141, 141, 141, 141, 141, 141, 141, 141, 141, 141, 141, 141, 141, 141, 141, 141, 141, 141, 141, 141, 141, 141, 141, 142, 142, 142, 141, 141, 141, 146, 146, 146, 158, 158, 158, 203, 203, 203, 313, 313, 313, 1155, 1155, 1155, 1155, 1155, 1155, 1446, 1446, 1446, 616, 616, 616, 616, 616, 616, 363, 363, 363, 363, 363, 363, 313, 313, 313, 427, 427, 427, 221, 221, 221, 158, 158, 158, 148, 148, 148, 158, 158, 158, 143, 143, 143, 142, 142, 142, 144, 144, 144
]);

num_tasks = 10;
preferred_starts =    [   
41,  135,  96, 115,   6,   120,   71,   31,   73,   46
];
earliest_starts =       [   
0,     0,    0,     0,     0,     0,     0,     0,     0,     0
];
latest_ends =           [   
143, 143, 143, 143, 143, 143, 143, 143, 143, 143
]; 
durations =              [
3, 3, 1, 2, 3, 4, 3, 6, 3, 4
];
% demands =         [0.055, 0.015, 0.300, 0.700, 0.080, 2.400, 3.500, 1.500, 0.400, 0.015]; % in kw
demands =         [
55, 15, 300, 700, 80, 2400, 3500, 1500, 400, 15
]; % in w
% care_factors =    [   0.001,  0,    0.009,  0.002,      0.001, 0.004,  0.003,     0.002,  0.001,   0.007];
care_factors =    [ 
1,  0,  9,  2,  1,  4,  3,  2,  1,  7
];

num_precedences = 2;
predecessors = [1, 7];
successors = [9, 10];
prec_delays = [62, 127];
max_demand = 6275999;

% loads = array1d(INTERVALS,[
% 141, 141, 141, 141, 141, 141, 141, 141, 141, 141, 141, 141, 141, 141, 141, 141, 141, 141, 141, 141, 141, 141, 141, 141, 141, 141, 141, 143, 143, 143, 142, 142, 142, 148, 148, 148, 189, 189, 189, 163, 163, 163, 145, 145, 145, 141, 141, 141, 141, 141, 141, 141, 141, 141, 141, 141, 141, 141, 141, 141, 141, 141, 141, 141, 141, 141, 141, 141, 141, 141, 141, 141, 141, 141, 141, 141, 141, 141, 142, 142, 142, 141, 141, 141, 146, 146, 146, 158, 158, 158, 203, 203, 203, 313, 313, 313, 1155, 1155, 1155, 1155, 1155, 1155, 1446, 1446, 1446, 616, 616, 616, 616, 616, 616, 363, 363, 363, 363, 363, 363, 313, 313, 313, 427, 427, 427, 221, 221, 221, 158, 158, 158, 148, 148, 148, 158, 158, 158, 143, 143, 143, 142, 142, 142, 144, 144, 144
% ]);